benchmark/results/graph__10-1000-0.10-03_2/graph__10-1000-0.10-03_2_Quinton_Benders_primal_sub.lp
\ This file has been generated by DOcplex
\ ENCODING=ISO-8859-1
\Problem name: Quinton Benders_primal_sub

Maximize
 obj: tau
Subject To
 c1: tau <= 0.001312335958
 c2: y_a0_proc_0 + y_a0_proc_1 + y_a0_proc_2 - tau = 0
 c3: y_a0_proc_0 <= 0
 c4: y_a0_proc_1 <= 0
 c5: y_a0_proc_2 <= 1
 c6: tau <= 0.000967117988
 c7: y_a1_proc_0 + y_a1_proc_1 + y_a1_proc_2 - tau = 0
 c8: y_a1_proc_0 <= 1
 c9: y_a1_proc_1 <= 0
 c10: y_a1_proc_2 <= 0
 c11: tau <= 0.001049317943
 c12: y_a2_proc_0 + y_a2_proc_2 - tau = 0
 c13: y_a2_proc_0 <= 0
 c14: y_a2_proc_2 <= 1
 c15: tau <= 0.001154734411
 c16: y_a3_proc_0 + y_a3_proc_1 - tau = 0
 c17: y_a3_proc_0 <= 0
 c18: y_a3_proc_1 <= 1
 c19: tau <= 0.001020408163
 c20: y_a4_proc_0 + y_a4_proc_1 + y_a4_proc_2 - tau = 0
 c21: y_a4_proc_0 <= 0
 c22: y_a4_proc_1 <= 0
 c23: y_a4_proc_2 <= 1
 c24: tau <= 0.001269035533
 c25: y_a5_proc_0 + y_a5_proc_2 - tau = 0
 c26: y_a5_proc_0 <= 1
 c27: y_a5_proc_2 <= 0
 c28: tau <= 0.001245330012
 c29: y_a6_proc_1 + y_a6_proc_2 - tau = 0
 c30: y_a6_proc_1 <= 0
 c31: y_a6_proc_2 <= 1
 c32: tau <= 0.001133786848
 c33: y_a7_proc_1 + y_a7_proc_2 - tau = 0
 c34: y_a7_proc_1 <= 1
 c35: y_a7_proc_2 <= 0
 c36: tau <= 0.000786782061
 c37: y_a8_proc_0 + y_a8_proc_1 + y_a8_proc_2 - tau = 0
 c38: y_a8_proc_0 <= 0
 c39: y_a8_proc_1 <= 1
 c40: y_a8_proc_2 <= 0
 c41: tau <= 0.000836820084
 c42: y_a9_proc_0 + y_a9_proc_1 + y_a9_proc_2 - tau = 0
 c43: y_a9_proc_0 <= 0
 c44: y_a9_proc_1 <= 1
 c45: y_a9_proc_2 <= 0
 c46: u_a0 - u_a1 - 1034 y_a1_proc_0 - 746 y_a1_proc_1 - 1247 y_a1_proc_2 >= 0
 c47: u_a1 - u_a2 - 499 y_a2_proc_0 - 953 y_a2_proc_2 >= -1
 c48: u_a0 - u_a3 - 683 y_a3_proc_0 - 866 y_a3_proc_1 >= -1
 c49: u_a2 - u_a4 - 993 y_a4_proc_0 - 1184 y_a4_proc_1 - 980 y_a4_proc_2 >= 0
 c50: u_a1 - u_a5 - 788 y_a5_proc_0 - 998 y_a5_proc_2 >= 0
 c51: u_a6 - u_a2 - 499 y_a2_proc_0 - 953 y_a2_proc_2 >= -1
 c52: u_a4 - u_a7 - 882 y_a7_proc_1 - 1056 y_a7_proc_2 >= 0
 c53: u_a3 - u_a8 - 992 y_a8_proc_0 - 1271 y_a8_proc_1 - 974 y_a8_proc_2 >= 0
 c54: u_a7 - u_a9 - 1162 y_a9_proc_0 - 1195 y_a9_proc_1 - 1040 y_a9_proc_2 >= 0
 c55: u_a3 - u_a2 - 499 y_a2_proc_0 - 953 y_a2_proc_2 >= -1
 c56: u_a5 - u_a3 - 683 y_a3_proc_0 - 866 y_a3_proc_1 >= -1
 c57: u_a2 - u_a6 - 994 y_a6_proc_1 - 803 y_a6_proc_2 >= 0
 c58: u_a2 - u_a0 - 1294 y_a0_proc_0 - 855 y_a0_proc_1 - 762 y_a0_proc_2 >= 0
 c59: u_a5 - u_a8 - 992 y_a8_proc_0 - 1271 y_a8_proc_1 - 974 y_a8_proc_2 >= 0
 c60: u_a9 - u_a8 - 992 y_a8_proc_0 - 1271 y_a8_proc_1 - 974 y_a8_proc_2 >= -1
 c61: u_a7 - u_a0 - 1294 y_a0_proc_0 - 855 y_a0_proc_1 - 762 y_a0_proc_2 >= 0
 c62: u_a6 - u_a0 - 1294 y_a0_proc_0 - 855 y_a0_proc_1 - 762 y_a0_proc_2 >= 0
 c63: u_a8 - u_a9 - 1162 y_a9_proc_0 - 1195 y_a9_proc_1 - 1040 y_a9_proc_2 >= 0
 c64: u_a4 - u_a3 - 683 y_a3_proc_0 - 866 y_a3_proc_1 >= 0
 c65: u_a1 - u_a0 - 762 y_a0_proc_2 >= -1
 c66: u_a1 - u_a0 - 1294 y_a0_proc_0 >= -1
 c67: u_a1 - u_a0 - 855 y_a0_proc_1 >= -1295
 c68: u_a0 - u_a1 - 1247 y_a1_proc_2 >= -2588
 c69: u_a0 - u_a1 - 1034 y_a1_proc_0 >= -2588
 c70: u_a0 - u_a1 - 746 y_a1_proc_1 >= -3882
 c71: u_a2 - u_a0 - 762 y_a0_proc_2 >= 0
 c72: u_a2 - u_a0 - 1294 y_a0_proc_0 >= -2588
 c73: u_a0 - u_a2 - 953 y_a2_proc_2 >= -1
 c74: u_a0 - u_a2 - 499 y_a2_proc_0 >= -2589
 c75: u_a3 - u_a0 - 1294 y_a0_proc_0 >= -3882
 c76: u_a3 - u_a0 - 855 y_a0_proc_1 >= -2588
 c77: u_a0 - u_a3 - 683 y_a3_proc_0 >= -1295
 c78: u_a0 - u_a3 - 866 y_a3_proc_1 >= -1
 c79: u_a4 - u_a0 - 762 y_a0_proc_2 >= 0
 c80: u_a4 - u_a0 - 1294 y_a0_proc_0 >= -2588
 c81: u_a4 - u_a0 - 855 y_a0_proc_1 >= -2588
 c82: u_a0 - u_a4 - 980 y_a4_proc_2 >= -1
 c83: u_a0 - u_a4 - 993 y_a4_proc_0 >= -2589
 c84: u_a0 - u_a4 - 1184 y_a4_proc_1 >= -2589
 c85: u_a5 - u_a0 - 762 y_a0_proc_2 >= -2589
 c86: u_a5 - u_a0 - 1294 y_a0_proc_0 >= -2589
 c87: u_a0 - u_a5 - 998 y_a5_proc_2 >= 0
 c88: u_a0 - u_a5 - 788 y_a5_proc_0 >= 0
 c89: u_a6 - u_a0 - 762 y_a0_proc_2 >= 0
 c90: u_a6 - u_a0 - 855 y_a0_proc_1 >= -2588
 c91: u_a0 - u_a6 - 803 y_a6_proc_2 >= -1
 c92: u_a0 - u_a6 - 994 y_a6_proc_1 >= -2589
 c93: u_a7 - u_a0 - 762 y_a0_proc_2 >= -2588
 c94: u_a7 - u_a0 - 855 y_a0_proc_1 >= -2588
 c95: u_a0 - u_a7 - 1056 y_a7_proc_2 >= -1
 c96: u_a0 - u_a7 - 882 y_a7_proc_1 >= -1
 c97: u_a8 - u_a0 - 762 y_a0_proc_2 >= -1000001294
 c98: u_a8 - u_a0 - 1294 y_a0_proc_0 >= -1000002588
 c99: u_a8 - u_a0 - 855 y_a0_proc_1 >= -1000001294
 c100: u_a0 - u_a8 - 974 y_a8_proc_2 >= 999998705
 c101: u_a0 - u_a8 - 992 y_a8_proc_0 >= 999997411
 c102: u_a0 - u_a8 - 1271 y_a8_proc_1 >= 999998705
 c103: u_a9 - u_a0 - 762 y_a0_proc_2 >= -1000001294
 c104: u_a9 - u_a0 - 1294 y_a0_proc_0 >= -1000002588
 c105: u_a9 - u_a0 - 855 y_a0_proc_1 >= -1000001294
 c106: u_a0 - u_a9 - 1040 y_a9_proc_2 >= 999998705
 c107: u_a0 - u_a9 - 1162 y_a9_proc_0 >= 999997411
 c108: u_a0 - u_a9 - 1195 y_a9_proc_1 >= 999998705
 c109: u_a2 - u_a1 - 1247 y_a1_proc_2 >= 0
 c110: u_a2 - u_a1 - 1034 y_a1_proc_0 >= 0
 c111: u_a1 - u_a2 - 953 y_a2_proc_2 >= -2589
 c112: u_a1 - u_a2 - 499 y_a2_proc_0 >= -2589
 c113: u_a3 - u_a1 - 1034 y_a1_proc_0 >= -2588
 c114: u_a3 - u_a1 - 746 y_a1_proc_1 >= -2588
 c115: u_a1 - u_a3 - 683 y_a3_proc_0 >= -1
 c116: u_a1 - u_a3 - 866 y_a3_proc_1 >= -1
 c117: u_a4 - u_a1 - 1247 y_a1_proc_2 >= -2588
 c118: u_a4 - u_a1 - 1034 y_a1_proc_0 >= -2588
 c119: u_a4 - u_a1 - 746 y_a1_proc_1 >= -3882
 c120: u_a1 - u_a4 - 980 y_a4_proc_2 >= -1
 c121: u_a1 - u_a4 - 993 y_a4_proc_0 >= -1
 c122: u_a1 - u_a4 - 1184 y_a4_proc_1 >= -1295
 c123: u_a5 - u_a1 - 1247 y_a1_proc_2 >= -2589
 c124: u_a5 - u_a1 - 1034 y_a1_proc_0 >= -1
 c125: u_a1 - u_a5 - 998 y_a5_proc_2 >= -2588
 c126: u_a1 - u_a5 - 788 y_a5_proc_0 >= 0
 c127: u_a6 - u_a1 - 1247 y_a1_proc_2 >= -2588
 c128: u_a6 - u_a1 - 746 y_a1_proc_1 >= -3882
 c129: u_a1 - u_a6 - 803 y_a6_proc_2 >= -1
 c130: u_a1 - u_a6 - 994 y_a6_proc_1 >= -1295
 c131: u_a7 - u_a1 - 1247 y_a1_proc_2 >= -3882
 c132: u_a7 - u_a1 - 746 y_a1_proc_1 >= -2588
 c133: u_a1 - u_a7 - 1056 y_a7_proc_2 >= -1295
 c134: u_a1 - u_a7 - 882 y_a7_proc_1 >= -1
 c135: u_a8 - u_a1 - 1247 y_a1_proc_2 >= -1000002588
 c136: u_a8 - u_a1 - 1034 y_a1_proc_0 >= -1000001294
 c137: u_a8 - u_a1 - 746 y_a1_proc_1 >= -1000001294
 c138: u_a1 - u_a8 - 974 y_a8_proc_2 >= 999997411
 c139: u_a1 - u_a8 - 992 y_a8_proc_0 >= 999998705
 c140: u_a1 - u_a8 - 1271 y_a8_proc_1 >= 999998705
 c141: u_a9 - u_a1 - 1247 y_a1_proc_2 >= -1000002588
 c142: u_a9 - u_a1 - 1034 y_a1_proc_0 >= -1000001294
 c143: u_a9 - u_a1 - 746 y_a1_proc_1 >= -1000001294
 c144: u_a1 - u_a9 - 1040 y_a9_proc_2 >= 999997411
 c145: u_a1 - u_a9 - 1162 y_a9_proc_0 >= 999998705
 c146: u_a1 - u_a9 - 1195 y_a9_proc_1 >= 999998705
 c147: u_a3 - u_a2 - 499 y_a2_proc_0 >= -5177
 c148: u_a2 - u_a3 - 683 y_a3_proc_0 >= 0
 c149: u_a4 - u_a2 - 953 y_a2_proc_2 >= -1
 c150: u_a4 - u_a2 - 499 y_a2_proc_0 >= -2589
 c151: u_a2 - u_a4 - 980 y_a4_proc_2 >= 0
 c152: u_a2 - u_a4 - 993 y_a4_proc_0 >= -2588
 c153: u_a5 - u_a2 - 953 y_a2_proc_2 >= -2589
 c154: u_a5 - u_a2 - 499 y_a2_proc_0 >= -2589
 c155: u_a2 - u_a5 - 998 y_a5_proc_2 >= 0
 c156: u_a2 - u_a5 - 788 y_a5_proc_0 >= 0
 c157: u_a6 - u_a2 - 953 y_a2_proc_2 >= -1
 c158: u_a2 - u_a6 - 803 y_a6_proc_2 >= 0
 c159: u_a7 - u_a2 - 953 y_a2_proc_2 >= -2589
 c160: u_a2 - u_a7 - 1056 y_a7_proc_2 >= 0
 c161: u_a8 - u_a2 - 953 y_a2_proc_2 >= -1000001294
 c162: u_a8 - u_a2 - 499 y_a2_proc_0 >= -1000002588
 c163: u_a2 - u_a8 - 974 y_a8_proc_2 >= 999998705
 c164: u_a2 - u_a8 - 992 y_a8_proc_0 >= 999997411
 c165: u_a9 - u_a2 - 953 y_a2_proc_2 >= -1000001294
 c166: u_a9 - u_a2 - 499 y_a2_proc_0 >= -1000002588
 c167: u_a2 - u_a9 - 1040 y_a9_proc_2 >= 999998705
 c168: u_a2 - u_a9 - 1162 y_a9_proc_0 >= 999997411
 c169: u_a4 - u_a3 - 683 y_a3_proc_0 >= -3882
 c170: u_a4 - u_a3 - 866 y_a3_proc_1 >= -2588
 c171: u_a3 - u_a4 - 993 y_a4_proc_0 >= -1295
 c172: u_a3 - u_a4 - 1184 y_a4_proc_1 >= -1
 c173: u_a5 - u_a3 - 683 y_a3_proc_0 >= -2589
 c174: u_a3 - u_a5 - 788 y_a5_proc_0 >= 0
 c175: u_a6 - u_a3 - 866 y_a3_proc_1 >= -2589
 c176: u_a3 - u_a6 - 994 y_a6_proc_1 >= 0
 c177: u_a7 - u_a3 - 866 y_a3_proc_1 >= -1
 c178: u_a3 - u_a7 - 882 y_a7_proc_1 >= 0
 c179: u_a8 - u_a3 - 683 y_a3_proc_0 >= -1000002588
 c180: u_a8 - u_a3 - 866 y_a3_proc_1 >= -1000000000
 c181: u_a3 - u_a8 - 992 y_a8_proc_0 >= 999997411
 c182: u_a3 - u_a8 - 1271 y_a8_proc_1 >= 999999999
 c183: u_a9 - u_a3 - 683 y_a3_proc_0 >= -1000002588
 c184: u_a9 - u_a3 - 866 y_a3_proc_1 >= -1000000000
 c185: u_a3 - u_a9 - 1162 y_a9_proc_0 >= 999997411
 c186: u_a3 - u_a9 - 1195 y_a9_proc_1 >= 999999999
 c187: u_a5 - u_a4 - 980 y_a4_proc_2 >= -2589
 c188: u_a5 - u_a4 - 993 y_a4_proc_0 >= -2589
 c189: u_a4 - u_a5 - 998 y_a5_proc_2 >= 0
 c190: u_a4 - u_a5 - 788 y_a5_proc_0 >= 0
 c191: u_a6 - u_a4 - 980 y_a4_proc_2 >= -1
 c192: u_a6 - u_a4 - 1184 y_a4_proc_1 >= -2589
 c193: u_a4 - u_a6 - 803 y_a6_proc_2 >= 0
 c194: u_a4 - u_a6 - 994 y_a6_proc_1 >= -2588
 c195: u_a7 - u_a4 - 980 y_a4_proc_2 >= -2589
 c196: u_a7 - u_a4 - 1184 y_a4_proc_1 >= -2589
 c197: u_a4 - u_a7 - 1056 y_a7_proc_2 >= 0
 c198: u_a4 - u_a7 - 882 y_a7_proc_1 >= 0
 c199: u_a8 - u_a4 - 980 y_a4_proc_2 >= -1000001294
 c200: u_a8 - u_a4 - 993 y_a4_proc_0 >= -1000002588
 c201: u_a8 - u_a4 - 1184 y_a4_proc_1 >= -1000001294
 c202: u_a4 - u_a8 - 974 y_a8_proc_2 >= 999998705
 c203: u_a4 - u_a8 - 992 y_a8_proc_0 >= 999997411
 c204: u_a4 - u_a8 - 1271 y_a8_proc_1 >= 999998705
 c205: u_a9 - u_a4 - 980 y_a4_proc_2 >= -1000001294
 c206: u_a9 - u_a4 - 993 y_a4_proc_0 >= -1000002588
 c207: u_a9 - u_a4 - 1184 y_a4_proc_1 >= -1000001294
 c208: u_a4 - u_a9 - 1040 y_a9_proc_2 >= 999998705
 c209: u_a4 - u_a9 - 1162 y_a9_proc_0 >= 999997411
 c210: u_a4 - u_a9 - 1195 y_a9_proc_1 >= 999998705
 c211: u_a6 - u_a5 - 998 y_a5_proc_2 >= -2588
 c212: u_a5 - u_a6 - 803 y_a6_proc_2 >= -1
 c213: u_a7 - u_a5 - 998 y_a5_proc_2 >= -5176
 c214: u_a5 - u_a7 - 1056 y_a7_proc_2 >= -1
 c215: u_a8 - u_a5 - 998 y_a5_proc_2 >= -1000002588
 c216: u_a8 - u_a5 - 788 y_a5_proc_0 >= -1000001294
 c217: u_a5 - u_a8 - 974 y_a8_proc_2 >= 999997411
 c218: u_a5 - u_a8 - 992 y_a8_proc_0 >= 999998705
 c219: u_a9 - u_a5 - 998 y_a5_proc_2 >= -1000002588
 c220: u_a9 - u_a5 - 788 y_a5_proc_0 >= -1000001294
 c221: u_a5 - u_a9 - 1040 y_a9_proc_2 >= 999997411
 c222: u_a5 - u_a9 - 1162 y_a9_proc_0 >= 999998705
 c223: u_a7 - u_a6 - 803 y_a6_proc_2 >= -2588
 c224: u_a7 - u_a6 - 994 y_a6_proc_1 >= -2588
 c225: u_a6 - u_a7 - 1056 y_a7_proc_2 >= -1
 c226: u_a6 - u_a7 - 882 y_a7_proc_1 >= -1
 c227: u_a8 - u_a6 - 803 y_a6_proc_2 >= -1000001294
 c228: u_a8 - u_a6 - 994 y_a6_proc_1 >= -1000001294
 c229: u_a6 - u_a8 - 974 y_a8_proc_2 >= 999998705
 c230: u_a6 - u_a8 - 1271 y_a8_proc_1 >= 999998705
 c231: u_a9 - u_a6 - 803 y_a6_proc_2 >= -1000001294
 c232: u_a9 - u_a6 - 994 y_a6_proc_1 >= -1000001294
 c233: u_a6 - u_a9 - 1040 y_a9_proc_2 >= 999998705
 c234: u_a6 - u_a9 - 1195 y_a9_proc_1 >= 999998705
 c235: u_a8 - u_a7 - 1056 y_a7_proc_2 >= -1000002588
 c236: u_a8 - u_a7 - 882 y_a7_proc_1 >= -1000000000
 c237: u_a7 - u_a8 - 974 y_a8_proc_2 >= 999997411
 c238: u_a7 - u_a8 - 1271 y_a8_proc_1 >= 999999999
 c239: u_a9 - u_a7 - 1056 y_a7_proc_2 >= -1000002588
 c240: u_a9 - u_a7 - 882 y_a7_proc_1 >= -1000000000
 c241: u_a7 - u_a9 - 1040 y_a9_proc_2 >= 999997411
 c242: u_a7 - u_a9 - 1195 y_a9_proc_1 >= 999999999
 c243: u_a9 - u_a8 - 974 y_a8_proc_2 >= -2589
 c244: u_a9 - u_a8 - 992 y_a8_proc_0 >= -2589
 c245: u_a9 - u_a8 - 1271 y_a8_proc_1 >= -1
 c246: u_a8 - u_a9 - 1040 y_a9_proc_2 >= -2588
 c247: u_a8 - u_a9 - 1162 y_a9_proc_0 >= -2588
 c248: u_a8 - u_a9 - 1195 y_a9_proc_1 >= 0

Bounds
End
