benchmark/results/graph__10-1000-0.10-03_2/graph__10-1000-0.10-03_2_Quinton_Benders_primal_sub.txt
solution for: Quinton Benders_primal_sub
objective: 0.000182582
status: OPTIMAL_SOLUTION(2)
u_a0=999999999.542
u_a1=999999999.353
u_a2=1000000000.179
u_a3=999999999.842
u_a4=1000000000.000
u_a5=999999999.000
u_a6=999999999.681
u_a7=999999999.681
u_a8=0.449
tau=0.000
y_a0_proc_2=0.000
y_a1_proc_0=0.000
y_a2_proc_2=0.000
y_a3_proc_1=0.000
y_a4_proc_2=0.000
y_a5_proc_0=0.000
y_a6_proc_2=0.000
y_a7_proc_1=0.000
y_a8_proc_1=0.000
y_a9_proc_1=0.000
